\ENCODING=ISO-8859-1
\Problem name: 

Maximize
 obj6PYkq9yx: x0
Subject To
 reach0:     M0 + s1 - s24  = 0
 reach1:     M1 + s2 - s25 - s27 - s34 - s48  = 0
 reach2:     M2 + s4 - s26 - s30 - s32 - s45  = 0
 reach3:     M3 + s3 - s28 - s29  = 0
 reach4:     M4 + s7 - s31 - s39 - s42 - s46  = 0
 reach5:     M5 + s5 - s36 - s37 - s47 - s75  = 0
 reach6:     M6 + s14 - s33 - s67 - s70 - s77 - s85  = 0
 reach7:     M7 + s6 - s35 - s38 - s41  = 0
 reach8:     M8 + s8 - s49  = 0
 reach9:     M9 + s9 - s40 - s50 - s53 - s61 - s65  = 0
 reach10:    M10 + s10 - s51 - s54 - s56 - s64 - s72  = 0
 reach11:    M11 + s16 - s43 - s52 - s76 - s79 - s93 - s100 - s104 - s113
             - s120 - s128 - s135 - s138  = 0
 reach12:    M12 + s11 - s44 - s55 - s57 - s59 - s69  = 0
 reach13:    M13 + s12 - s58 - s60 - s62 - s73  = 0
 reach14:    M14 + s15 - s68 - s71 - s74  = 0
 reach15:    M15 + s21 - s78 - s80 - s87 - s95 - s105 - s108 - s119 - s132
             - s139  = 0
 reach16:    M16 + s13 - s63 - s66  = 0
 reach17:    M17 + s19 - s81 - s90 - s97 - s102 - s121 - s122 - s131 - s140
              = 0
 reach18:    M18 + s18 - s82 - s88 - s98 - s110 - s115 - s123 - s130 - s141
              = 0
 reach19:    M19 + s20 - s83 - s89 - s96 - s101 - s109 - s126 - s133 - s136
              = 0
 reach20:    M20 + s17 - s84 - s86 - s107 - s114 - s118 - s127 - s134  = 0
 reach21:    M21 + s23 - s91 - s94 - s106 - s111 - s117 - s124 - s129  = 0
 reach22:    M22 + s22 - s92 - s99 - s103 - s112 - s116 - s125 - s137  = 0
 reach23:    M23 + s0  = 1
 reach24:    M24 - s0 + s24 + s25 + s26  = 0
 reach25:    M25 - s1 + s27 + s28  = 0
 reach26:    M26 - s2 + s29 + s30 + s31  = 0
 reach27:    M27 - s3 + s32 + s33 + s34 + s35 + s36  = 0
 reach28:    M28 - s4 + s37 + s38 + s39 + s40  = 0
 reach29:    M29 - s5 + s41 + s42 + s43 + s44 + s45  = 0
 reach30:    M30 - s6 + s46 + s47 + s48  = 0
 reach31:    M31 - s7 + s49 + s50 + s51 + s52  = 0
 reach32:    M32 - s8 + s53 + s54 + s55  = 0
 reach33:    M33 - s9 + s56 + s57 + s58  = 0
 reach34:    M34 - s10 + s59 + s60 + s61  = 0
 reach35:    M35 - s11 + s62 + s63 + s64 + s65  = 0
 reach36:    M36 - s12 + s66 + s67 + s68 + s69  = 0
 reach37:    M37 - s13 + s70 + s71 + s72 + s73  = 0
 reach38:    M38 - s14 + s74 + s75 + s76 + s77 + s78  = 0
 reach39:    M39 - s15 + s79 + s80 + s81 + s82 + s83 + s84 + s85  = 0
 reach40:    M40 - s16 + s86 + s87 + s88 + s89 + s90 + s91 + s92 + s93  = 0
 reach41:    M41 - s17 + s94 + s95 + s96 + s97 + s98 + s99 + s100  = 0
 reach42:    M42 - s18 + s101 + s102 + s103 + s104 + s105 + s106 + s107  = 0
 reach43:    M43 - s19 + s108 + s109 + s110 + s111 + s112 + s113 + s114  = 0
 reach44:    M44 - s20 + s115 + s116 + s117 + s118 + s119 + s120 + s121  = 0
 reach45:    M45 - s21 + s122 + s123 + s124 + s125 + s126 + s127 + s128  = 0
 reach46:    M46 - s22 + s129 + s130 + s131 + s132 + s133 + s134 + s135  = 0
 reach47:    M47 - s23 + s136 + s137 + s138 + s139 + s140 + s141  = 0
 flow48:     - x1 + x24  = 0
 flow49:     - x2 + x25 + x27 + x34 + x48  = 0
 flow50:     - x4 + x26 + x30 + x32 + x45  = 0
 flow51:     - x3 + x28 + x29  = 0
 flow52:     - x7 + x31 + x39 + x42 + x46  = 0
 flow53:     - x5 + x36 + x37 + x47 + x75  = 0
 flow54:     - x14 + x33 + x67 + x70 + x77 + x85  = 0
 flow55:     - x6 + x35 + x38 + x41  = 0
 flow56:     - x8 + x49  = 0
 flow57:     - x9 + x40 + x50 + x53 + x61 + x65  = 0
 flow58:     - x10 + x51 + x54 + x56 + x64 + x72  = 0
 flow59:     - x16 + x43 + x52 + x76 + x79 + x93 + x100 + x104 + x113 + x120
             + x128 + x135 + x138  = 0
 flow60:     - x11 + x44 + x55 + x57 + x59 + x69  = 0
 flow61:     - x12 + x58 + x60 + x62 + x73  = 0
 flow62:     - x15 + x68 + x71 + x74  = 0
 flow63:     - x21 + x78 + x80 + x87 + x95 + x105 + x108 + x119 + x132 + x139
              = 0
 flow64:     - x13 + x63 + x66  = 0
 flow65:     - x19 + x81 + x90 + x97 + x102 + x121 + x122 + x131 + x140  = 0
 flow66:     - x18 + x82 + x88 + x98 + x110 + x115 + x123 + x130 + x141  = 0
 flow67:     - x20 + x83 + x89 + x96 + x101 + x109 + x126 + x133 + x136  = 0
 flow68:     - x17 + x84 + x86 + x107 + x114 + x118 + x127 + x134  = 0
 flow69:     - x23 + x91 + x94 + x106 + x111 + x117 + x124 + x129  = 0
 flow70:     - x22 + x92 + x99 + x103 + x112 + x116 + x125 + x137  = 0
 flow71:     - x0  = 0
 flow72:     x0 - x24 - x25 - x26  = 0
 flow73:     x1 - x27 - x28  = 0
 flow74:     x2 - x29 - x30 - x31  = 0
 flow75:     x3 - x32 - x33 - x34 - x35 - x36  = 0
 flow76:     x4 - x37 - x38 - x39 - x40  = 0
 flow77:     x5 - x41 - x42 - x43 - x44 - x45  = 0
 flow78:     x6 - x46 - x47 - x48  = 0
 flow79:     x7 - x49 - x50 - x51 - x52  = 0
 flow80:     x8 - x53 - x54 - x55  = 0
 flow81:     x9 - x56 - x57 - x58  = 0
 flow82:     x10 - x59 - x60 - x61  = 0
 flow83:     x11 - x62 - x63 - x64 - x65  = 0
 flow84:     x12 - x66 - x67 - x68 - x69  = 0
 flow85:     x13 - x70 - x71 - x72 - x73  = 0
 flow86:     x14 - x74 - x75 - x76 - x77 - x78  = 0
 flow87:     x15 - x79 - x80 - x81 - x82 - x83 - x84 - x85  = 0
 flow88:     x16 - x86 - x87 - x88 - x89 - x90 - x91 - x92 - x93  = 0
 flow89:     x17 - x94 - x95 - x96 - x97 - x98 - x99 - x100  = 0
 flow90:     x18 - x101 - x102 - x103 - x104 - x105 - x106 - x107  = 0
 flow91:     x19 - x108 - x109 - x110 - x111 - x112 - x113 - x114  = 0
 flow92:     x20 - x115 - x116 - x117 - x118 - x119 - x120 - x121  = 0
 flow93:     x21 - x122 - x123 - x124 - x125 - x126 - x127 - x128  = 0
 flow94:     x22 - x129 - x130 - x131 - x132 - x133 - x134 - x135  = 0
 flow95:     x23 - x136 - x137 - x138 - x139 - x140 - x141  = 0
 little96:   M23 - 262.822139373587 x0 >= 0
 little97:   M0 - 207.56555054045 x1 >= 0
 little98:   M1 - 269.35 x2 >= 0
 little99:   M3 - 544.811822931906 x3 >= 0
 little100:  M2 - 68.9337947500803 x4 >= 0
 little101:  M5 - 172.445151761068 x5 >= 0
 little102:  M7 - 414.191733356029 x6 >= 0
 little103:  M4 - 84.5509373041758 x7 >= 0
 little104:  M8 - 125.860490378894 x8 >= 0
 little105:  M9 - 42.9049917578006 x9 >= 0
 little106:  M10 - 177.238004258071 x10 >= 0
 little107:  M12 - 259.880497717961 x11 >= 0
 little108:  M13 - 214.68580060423 x12 >= 0
 little109:  M16 - 448.665232304434 x13 >= 0
 little110:  M6 - 128.20975008284 x14 >= 0
 little111:  M14 - 263.945012466314 x15 >= 0
 little112:  M11 - 372.285714285714 x16 >= 0
 little113:  M20 - 389.509063629272 x17 >= 0
 little114:  M18 - 205.503036294807 x18 >= 0
 little115:  M17 - 381.741340768817 x19 >= 0
 little116:  M19 - 326.695585697255 x20 >= 0
 little117:  M15 - 180.186363636364 x21 >= 0
 little118:  M22 - 188.513495433187 x22 >= 0
 little119:  M21 - 89.7909090909091 x23 >= 0
 routing120: 0.0205882352941176 x24 - 0.979411764705882 x25
             - 0.979411764705882 x26  = 0
 routing121: - 0.0147058823529412 x24 + 0.985294117647059 x25
             - 0.0147058823529412 x26  = 0
 routing122: - 0.00588235294117647 x24 - 0.00588235294117647 x25
             + 0.994117647058824 x26  = 0
 routing123: 0.0178041543026706 x27 - 0.982195845697329 x28  = 0
 routing124: - 0.0178041543026706 x27 + 0.982195845697329 x28  = 0
 routing125: 0.0352941176470588 x29 - 0.964705882352941 x30
             - 0.964705882352941 x31  = 0
 routing126: - 0.0323529411764706 x29 + 0.967647058823529 x30
             - 0.0323529411764706 x31  = 0
 routing127: - 0.00294117647058824 x29 - 0.00294117647058824 x30
             + 0.997058823529412 x31  = 0
 routing128: 0.0120120120120122 x32 - 0.987987987987988 x33
             - 0.987987987987988 x34 - 0.987987987987988 x35
             - 0.987987987987988 x36  = 0
 routing129: - 0.003003003003003 x32 + 0.996996996996997 x33
             - 0.003003003003003 x34 - 0.003003003003003 x35
             - 0.003003003003003 x36  = 0
 routing130: - 0.003003003003003 x32 - 0.003003003003003 x33
             + 0.996996996996997 x34 - 0.003003003003003 x35
             - 0.003003003003003 x36  = 0
 routing131: - 0.003003003003003 x32 - 0.003003003003003 x33
             - 0.003003003003003 x34 + 0.996996996996997 x35
             - 0.003003003003003 x36  = 0
 routing132: - 0.003003003003003 x32 - 0.003003003003003 x33
             - 0.003003003003003 x34 - 0.003003003003003 x35
             + 0.996996996996997 x36  = 0
 routing133: - 0.00291545189504373 x37 - 0.00291545189504373 x38
             - 0.00291545189504373 x39 + 0.997084548104956 x40  = 0
 routing134: 0.107871720116618 x37 - 0.892128279883382 x38
             - 0.892128279883382 x39 - 0.892128279883382 x40  = 0
 routing135: - 0.0932944606413994 x37 + 0.906705539358601 x38
             - 0.0932944606413994 x39 - 0.0932944606413994 x40  = 0
 routing136: - 0.0116618075801749 x37 - 0.0116618075801749 x38
             + 0.988338192419825 x39 - 0.0116618075801749 x40  = 0
 routing137: 0.0352564102564102 x41 - 0.96474358974359 x42
             - 0.96474358974359 x43 - 0.96474358974359 x44
             - 0.96474358974359 x45  = 0
 routing138: - 0.0224358974358974 x41 + 0.977564102564103 x42
             - 0.0224358974358974 x43 - 0.0224358974358974 x44
             - 0.0224358974358974 x45  = 0
 routing139: - 0.00641025641025641 x41 - 0.00641025641025641 x42
             + 0.993589743589744 x43 - 0.00641025641025641 x44
             - 0.00641025641025641 x45  = 0
 routing140: - 0.00320512820512821 x41 - 0.00320512820512821 x42
             - 0.00320512820512821 x43 + 0.996794871794872 x44
             - 0.00320512820512821 x45  = 0
 routing141: - 0.00320512820512821 x41 - 0.00320512820512821 x42
             - 0.00320512820512821 x43 - 0.00320512820512821 x44
             + 0.996794871794872 x45  = 0
 routing142: - 0.0029940119760479 x46 - 0.0029940119760479 x47
             + 0.997005988023952 x48  = 0
 routing143: 0.00898203592814373 x46 - 0.991017964071856 x47
             - 0.991017964071856 x48  = 0
 routing144: - 0.00598802395209581 x46 + 0.994011976047904 x47
             - 0.00598802395209581 x48  = 0
 routing145: 0.0297619047619048 x49 - 0.970238095238095 x50
             - 0.970238095238095 x51 - 0.970238095238095 x52  = 0
 routing146: - 0.0238095238095238 x49 + 0.976190476190476 x50
             - 0.0238095238095238 x51 - 0.0238095238095238 x52  = 0
 routing147: - 0.00297619047619048 x49 - 0.00297619047619048 x50
             + 0.99702380952381 x51 - 0.00297619047619048 x52  = 0
 routing148: - 0.00297619047619048 x49 - 0.00297619047619048 x50
             - 0.00297619047619048 x51 + 0.99702380952381 x52  = 0
 routing149: 0.0244648318042814 x53 - 0.975535168195719 x54
             - 0.975535168195719 x55  = 0
 routing150: - 0.018348623853211 x53 + 0.981651376146789 x54
             - 0.018348623853211 x55  = 0
 routing151: - 0.00611620795107034 x53 - 0.00611620795107034 x54
             + 0.99388379204893 x55  = 0
 routing152: 0.0420420420420421 x56 - 0.957957957957958 x57
             - 0.957957957957958 x58  = 0
 routing153: - 0.039039039039039 x56 + 0.960960960960961 x57
             - 0.039039039039039 x58  = 0
 routing154: - 0.003003003003003 x56 - 0.003003003003003 x57
             + 0.996996996996997 x58  = 0
 routing155: 0.0699088145896656 x59 - 0.930091185410334 x60
             - 0.930091185410334 x61  = 0
 routing156: - 0.0547112462006079 x59 + 0.945288753799392 x60
             - 0.0547112462006079 x61  = 0
 routing157: - 0.0151975683890578 x59 - 0.0151975683890578 x60
             + 0.984802431610942 x61  = 0
 routing158: - 0.00934579439252336 x62 - 0.00934579439252336 x63
             + 0.990654205607477 x64 - 0.00934579439252336 x65  = 0
 routing159: - 0.00311526479750779 x62 - 0.00311526479750779 x63
             - 0.00311526479750779 x64 + 0.996884735202492 x65  = 0
 routing160: 0.0311526479750779 x62 - 0.968847352024922 x63
             - 0.968847352024922 x64 - 0.968847352024922 x65  = 0
 routing161: - 0.0186915887850467 x62 + 0.981308411214953 x63
             - 0.0186915887850467 x64 - 0.0186915887850467 x65  = 0
 routing162: 0.0604229607250755 x66 - 0.939577039274925 x67
             - 0.939577039274925 x68 - 0.939577039274925 x69  = 0
 routing163: - 0.0513595166163142 x66 + 0.948640483383686 x67
             - 0.0513595166163142 x68 - 0.0513595166163142 x69  = 0
 routing164: - 0.00604229607250755 x66 - 0.00604229607250755 x67
             + 0.993957703927492 x68 - 0.00604229607250755 x69  = 0
 routing165: - 0.00302114803625378 x66 - 0.00302114803625378 x67
             - 0.00302114803625378 x68 + 0.996978851963746 x69  = 0
 routing166: - 0.00315457413249211 x70 - 0.00315457413249211 x71
             + 0.996845425867508 x72 - 0.00315457413249211 x73  = 0
 routing167: - 0.00315457413249211 x70 - 0.00315457413249211 x71
             - 0.00315457413249211 x72 + 0.996845425867508 x73  = 0
 routing168: 0.0220820189274448 x70 - 0.977917981072555 x71
             - 0.977917981072555 x72 - 0.977917981072555 x73  = 0
 routing169: - 0.0157728706624606 x70 + 0.984227129337539 x71
             - 0.0157728706624606 x72 - 0.0157728706624606 x73  = 0
 routing170: 0.021875 x74 - 0.978125 x75 - 0.978125 x76 - 0.978125 x77
             - 0.978125 x78  = 0
 routing171: - 0.009375 x74 + 0.990625 x75 - 0.009375 x76 - 0.009375 x77
             - 0.009375 x78  = 0
 routing172: - 0.00625 x74 - 0.00625 x75 + 0.99375 x76 - 0.00625 x77
             - 0.00625 x78  = 0
 routing173: - 0.003125 x74 - 0.003125 x75 - 0.003125 x76 + 0.996875 x77
             - 0.003125 x78  = 0
 routing174: - 0.003125 x74 - 0.003125 x75 - 0.003125 x76 - 0.003125 x77
             + 0.996875 x78  = 0
 routing175: 0.351111111111111 x79 - 0.648888888888889 x80
             - 0.648888888888889 x81 - 0.648888888888889 x82
             - 0.648888888888889 x83 - 0.648888888888889 x84
             - 0.648888888888889 x85  = 0
 routing176: - 0.128888888888889 x79 + 0.871111111111111 x80
             - 0.128888888888889 x81 - 0.128888888888889 x82
             - 0.128888888888889 x83 - 0.128888888888889 x84
             - 0.128888888888889 x85  = 0
 routing177: - 0.0933333333333334 x79 - 0.0933333333333334 x80
             + 0.906666666666667 x81 - 0.0933333333333334 x82
             - 0.0933333333333334 x83 - 0.0933333333333334 x84
             - 0.0933333333333334 x85  = 0
 routing178: - 0.0666666666666667 x79 - 0.0666666666666667 x80
             - 0.0666666666666667 x81 + 0.933333333333333 x82
             - 0.0666666666666667 x83 - 0.0666666666666667 x84
             - 0.0666666666666667 x85  = 0
 routing179: - 0.0311111111111111 x79 - 0.0311111111111111 x80
             - 0.0311111111111111 x81 - 0.0311111111111111 x82
             + 0.968888888888889 x83 - 0.0311111111111111 x84
             - 0.0311111111111111 x85  = 0
 routing180: - 0.0222222222222222 x79 - 0.0222222222222222 x80
             - 0.0222222222222222 x81 - 0.0222222222222222 x82
             - 0.0222222222222222 x83 + 0.977777777777778 x84
             - 0.0222222222222222 x85  = 0
 routing181: - 0.00888888888888889 x79 - 0.00888888888888889 x80
             - 0.00888888888888889 x81 - 0.00888888888888889 x82
             - 0.00888888888888889 x83 - 0.00888888888888889 x84
             + 0.991111111111111 x85  = 0
 routing182: 0.400900900900901 x86 - 0.599099099099099 x87
             - 0.599099099099099 x88 - 0.599099099099099 x89
             - 0.599099099099099 x90 - 0.599099099099099 x91
             - 0.599099099099099 x92 - 0.599099099099099 x93  = 0
 routing183: - 0.166666666666667 x86 + 0.833333333333333 x87
             - 0.166666666666667 x88 - 0.166666666666667 x89
             - 0.166666666666667 x90 - 0.166666666666667 x91
             - 0.166666666666667 x92 - 0.166666666666667 x93  = 0
 routing184: - 0.0900900900900901 x86 - 0.0900900900900901 x87
             + 0.90990990990991 x88 - 0.0900900900900901 x89
             - 0.0900900900900901 x90 - 0.0900900900900901 x91
             - 0.0900900900900901 x92 - 0.0900900900900901 x93  = 0
 routing185: - 0.0540540540540541 x86 - 0.0540540540540541 x87
             - 0.0540540540540541 x88 + 0.945945945945946 x89
             - 0.0540540540540541 x90 - 0.0540540540540541 x91
             - 0.0540540540540541 x92 - 0.0540540540540541 x93  = 0
 routing186: - 0.045045045045045 x86 - 0.045045045045045 x87
             - 0.045045045045045 x88 - 0.045045045045045 x89
             + 0.954954954954955 x90 - 0.045045045045045 x91
             - 0.045045045045045 x92 - 0.045045045045045 x93  = 0
 routing187: - 0.027027027027027 x86 - 0.027027027027027 x87
             - 0.027027027027027 x88 - 0.027027027027027 x89
             - 0.027027027027027 x90 + 0.972972972972973 x91
             - 0.027027027027027 x92 - 0.027027027027027 x93  = 0
 routing188: - 0.0135135135135135 x86 - 0.0135135135135135 x87
             - 0.0135135135135135 x88 - 0.0135135135135135 x89
             - 0.0135135135135135 x90 - 0.0135135135135135 x91
             + 0.986486486486487 x92 - 0.0135135135135135 x93  = 0
 routing189: - 0.00450450450450451 x86 - 0.00450450450450451 x87
             - 0.00450450450450451 x88 - 0.00450450450450451 x89
             - 0.00450450450450451 x90 - 0.00450450450450451 x91
             - 0.00450450450450451 x92 + 0.995495495495496 x93  = 0
 routing190: - 0.176165803108808 x94 - 0.176165803108808 x95
             + 0.823834196891192 x96 - 0.176165803108808 x97
             - 0.176165803108808 x98 - 0.176165803108808 x99
             - 0.176165803108808 x100  = 0
 routing191: - 0.170984455958549 x94 - 0.170984455958549 x95
             - 0.170984455958549 x96 + 0.829015544041451 x97
             - 0.170984455958549 x98 - 0.170984455958549 x99
             - 0.170984455958549 x100  = 0
 routing192: - 0.10880829015544 x94 - 0.10880829015544 x95
             - 0.10880829015544 x96 - 0.10880829015544 x97
             + 0.89119170984456 x98 - 0.10880829015544 x99
             - 0.10880829015544 x100  = 0
 routing193: - 0.103626943005181 x94 - 0.103626943005181 x95
             - 0.103626943005181 x96 - 0.103626943005181 x97
             - 0.103626943005181 x98 + 0.896373056994819 x99
             - 0.103626943005181 x100  = 0
 routing194: - 0.0362694300518135 x94 - 0.0362694300518135 x95
             - 0.0362694300518135 x96 - 0.0362694300518135 x97
             - 0.0362694300518135 x98 - 0.0362694300518135 x99
             + 0.963730569948187 x100  = 0
 routing195: 0.787564766839378 x94 - 0.212435233160622 x95
             - 0.212435233160622 x96 - 0.212435233160622 x97
             - 0.212435233160622 x98 - 0.212435233160622 x99
             - 0.212435233160622 x100  = 0
 routing196: - 0.191709844559585 x94 + 0.808290155440414 x95
             - 0.191709844559585 x96 - 0.191709844559585 x97
             - 0.191709844559585 x98 - 0.191709844559585 x99
             - 0.191709844559585 x100  = 0
 routing197: 0.699074074074074 x101 - 0.300925925925926 x102
             - 0.300925925925926 x103 - 0.300925925925926 x104
             - 0.300925925925926 x105 - 0.300925925925926 x106
             - 0.300925925925926 x107  = 0
 routing198: - 0.287037037037037 x101 + 0.712962962962963 x102
             - 0.287037037037037 x103 - 0.287037037037037 x104
             - 0.287037037037037 x105 - 0.287037037037037 x106
             - 0.287037037037037 x107  = 0
 routing199: - 0.217592592592593 x101 - 0.217592592592593 x102
             + 0.782407407407407 x103 - 0.217592592592593 x104
             - 0.217592592592593 x105 - 0.217592592592593 x106
             - 0.217592592592593 x107  = 0
 routing200: - 0.0648148148148148 x101 - 0.0648148148148148 x102
             - 0.0648148148148148 x103 + 0.935185185185185 x104
             - 0.0648148148148148 x105 - 0.0648148148148148 x106
             - 0.0648148148148148 x107  = 0
 routing201: - 0.0648148148148148 x101 - 0.0648148148148148 x102
             - 0.0648148148148148 x103 - 0.0648148148148148 x104
             + 0.935185185185185 x105 - 0.0648148148148148 x106
             - 0.0648148148148148 x107  = 0
 routing202: - 0.0416666666666667 x101 - 0.0416666666666667 x102
             - 0.0416666666666667 x103 - 0.0416666666666667 x104
             - 0.0416666666666667 x105 + 0.958333333333333 x106
             - 0.0416666666666667 x107  = 0
 routing203: - 0.0231481481481482 x101 - 0.0231481481481482 x102
             - 0.0231481481481482 x103 - 0.0231481481481482 x104
             - 0.0231481481481482 x105 - 0.0231481481481482 x106
             + 0.976851851851852 x107  = 0
 routing204: 0.707762557077626 x108 - 0.292237442922374 x109
             - 0.292237442922374 x110 - 0.292237442922374 x111
             - 0.292237442922374 x112 - 0.292237442922374 x113
             - 0.292237442922374 x114  = 0
 routing205: - 0.210045662100457 x108 + 0.789954337899543 x109
             - 0.210045662100457 x110 - 0.210045662100457 x111
             - 0.210045662100457 x112 - 0.210045662100457 x113
             - 0.210045662100457 x114  = 0
 routing206: - 0.182648401826484 x108 - 0.182648401826484 x109
             + 0.817351598173516 x110 - 0.182648401826484 x111
             - 0.182648401826484 x112 - 0.182648401826484 x113
             - 0.182648401826484 x114  = 0
 routing207: - 0.123287671232877 x108 - 0.123287671232877 x109
             - 0.123287671232877 x110 + 0.876712328767123 x111
             - 0.123287671232877 x112 - 0.123287671232877 x113
             - 0.123287671232877 x114  = 0
 routing208: - 0.0958904109589041 x108 - 0.0958904109589041 x109
             - 0.0958904109589041 x110 - 0.0958904109589041 x111
             + 0.904109589041096 x112 - 0.0958904109589041 x113
             - 0.0958904109589041 x114  = 0
 routing209: - 0.0502283105022831 x108 - 0.0502283105022831 x109
             - 0.0502283105022831 x110 - 0.0502283105022831 x111
             - 0.0502283105022831 x112 + 0.949771689497717 x113
             - 0.0502283105022831 x114  = 0
 routing210: - 0.045662100456621 x108 - 0.045662100456621 x109
             - 0.045662100456621 x110 - 0.045662100456621 x111
             - 0.045662100456621 x112 - 0.045662100456621 x113
             + 0.954337899543379 x114  = 0
 routing211: 0.753768844221105 x115 - 0.246231155778894 x116
             - 0.246231155778894 x117 - 0.246231155778894 x118
             - 0.246231155778894 x119 - 0.246231155778894 x120
             - 0.246231155778894 x121  = 0
 routing212: - 0.241206030150754 x115 + 0.758793969849246 x116
             - 0.241206030150754 x117 - 0.241206030150754 x118
             - 0.241206030150754 x119 - 0.241206030150754 x120
             - 0.241206030150754 x121  = 0
 routing213: - 0.115577889447236 x115 - 0.115577889447236 x116
             + 0.884422110552764 x117 - 0.115577889447236 x118
             - 0.115577889447236 x119 - 0.115577889447236 x120
             - 0.115577889447236 x121  = 0
 routing214: - 0.110552763819095 x115 - 0.110552763819095 x116
             - 0.110552763819095 x117 + 0.889447236180904 x118
             - 0.110552763819095 x119 - 0.110552763819095 x120
             - 0.110552763819095 x121  = 0
 routing215: - 0.110552763819095 x115 - 0.110552763819095 x116
             - 0.110552763819095 x117 - 0.110552763819095 x118
             + 0.889447236180904 x119 - 0.110552763819095 x120
             - 0.110552763819095 x121  = 0
 routing216: - 0.0954773869346734 x115 - 0.0954773869346734 x116
             - 0.0954773869346734 x117 - 0.0954773869346734 x118
             - 0.0954773869346734 x119 + 0.904522613065327 x120
             - 0.0954773869346734 x121  = 0
 routing217: - 0.0804020100502513 x115 - 0.0804020100502513 x116
             - 0.0804020100502513 x117 - 0.0804020100502513 x118
             - 0.0804020100502513 x119 - 0.0804020100502513 x120
             + 0.919597989949749 x121  = 0
 routing218: - 0.0651162790697674 x122 - 0.0651162790697674 x123
             - 0.0651162790697674 x124 - 0.0651162790697674 x125
             - 0.0651162790697674 x126 - 0.0651162790697674 x127
             + 0.934883720930233 x128  = 0
 routing219: 0.744186046511628 x122 - 0.255813953488372 x123
             - 0.255813953488372 x124 - 0.255813953488372 x125
             - 0.255813953488372 x126 - 0.255813953488372 x127
             - 0.255813953488372 x128  = 0
 routing220: - 0.218604651162791 x122 + 0.781395348837209 x123
             - 0.218604651162791 x124 - 0.218604651162791 x125
             - 0.218604651162791 x126 - 0.218604651162791 x127
             - 0.218604651162791 x128  = 0
 routing221: - 0.144186046511628 x122 - 0.144186046511628 x123
             + 0.855813953488372 x124 - 0.144186046511628 x125
             - 0.144186046511628 x126 - 0.144186046511628 x127
             - 0.144186046511628 x128  = 0
 routing222: - 0.134883720930233 x122 - 0.134883720930233 x123
             - 0.134883720930233 x124 + 0.865116279069767 x125
             - 0.134883720930233 x126 - 0.134883720930233 x127
             - 0.134883720930233 x128  = 0
 routing223: - 0.106976744186047 x122 - 0.106976744186047 x123
             - 0.106976744186047 x124 - 0.106976744186047 x125
             + 0.893023255813953 x126 - 0.106976744186047 x127
             - 0.106976744186047 x128  = 0
 routing224: - 0.0744186046511628 x122 - 0.0744186046511628 x123
             - 0.0744186046511628 x124 - 0.0744186046511628 x125
             - 0.0744186046511628 x126 + 0.925581395348837 x127
             - 0.0744186046511628 x128  = 0
 routing225: 0.496969696969697 x129 - 0.503030303030303 x130
             - 0.503030303030303 x131 - 0.503030303030303 x132
             - 0.503030303030303 x133 - 0.503030303030303 x134
             - 0.503030303030303 x135  = 0
 routing226: - 0.151515151515152 x129 + 0.848484848484849 x130
             - 0.151515151515152 x131 - 0.151515151515152 x132
             - 0.151515151515152 x133 - 0.151515151515152 x134
             - 0.151515151515152 x135  = 0
 routing227: - 0.127272727272727 x129 - 0.127272727272727 x130
             + 0.872727272727273 x131 - 0.127272727272727 x132
             - 0.127272727272727 x133 - 0.127272727272727 x134
             - 0.127272727272727 x135  = 0
 routing228: - 0.0848484848484849 x129 - 0.0848484848484849 x130
             - 0.0848484848484849 x131 + 0.915151515151515 x132
             - 0.0848484848484849 x133 - 0.0848484848484849 x134
             - 0.0848484848484849 x135  = 0
 routing229: - 0.0727272727272727 x129 - 0.0727272727272727 x130
             - 0.0727272727272727 x131 - 0.0727272727272727 x132
             + 0.927272727272727 x133 - 0.0727272727272727 x134
             - 0.0727272727272727 x135  = 0
 routing230: - 0.0424242424242424 x129 - 0.0424242424242424 x130
             - 0.0424242424242424 x131 - 0.0424242424242424 x132
             - 0.0424242424242424 x133 + 0.957575757575758 x134
             - 0.0424242424242424 x135  = 0
 routing231: - 0.0181818181818182 x129 - 0.0181818181818182 x130
             - 0.0181818181818182 x131 - 0.0181818181818182 x132
             - 0.0181818181818182 x133 - 0.0181818181818182 x134
             + 0.981818181818182 x135  = 0
 routing232: 0.722222222222222 x136 - 0.277777777777778 x137
             - 0.277777777777778 x138 - 0.277777777777778 x139
             - 0.277777777777778 x140 - 0.277777777777778 x141  = 0
 routing233: - 0.277777777777778 x136 + 0.722222222222222 x137
             - 0.277777777777778 x138 - 0.277777777777778 x139
             - 0.277777777777778 x140 - 0.277777777777778 x141  = 0
 routing234: - 0.166666666666667 x136 - 0.166666666666667 x137
             + 0.833333333333333 x138 - 0.166666666666667 x139
             - 0.166666666666667 x140 - 0.166666666666667 x141  = 0
 routing235: - 0.111111111111111 x136 - 0.111111111111111 x137
             - 0.111111111111111 x138 + 0.888888888888889 x139
             - 0.111111111111111 x140 - 0.111111111111111 x141  = 0
 routing236: - 0.111111111111111 x136 - 0.111111111111111 x137
             - 0.111111111111111 x138 - 0.111111111111111 x139
             + 0.888888888888889 x140 - 0.111111111111111 x141  = 0
 routing237: - 0.0555555555555556 x136 - 0.0555555555555556 x137
             - 0.0555555555555556 x138 - 0.0555555555555556 x139
             - 0.0555555555555556 x140 + 0.944444444444444 x141  = 0
End
